WARNING: for repeatability, setting FPU to use double precision
============================[ Problem Statistics ]=============================
|                                                                             |
|  Number of variables:        231883                                         |
|  Number of clauses:          531631                                         |
|  Parse time:                   0.17 s                                       |
|                                                                             |
============================[ Search Statistics ]==============================
| Conflicts |          ORIGINAL         |          LEARNT          | Progress |
|           |    Vars  Clauses Literals |    Limit  Clauses Lit/Cl |          |
===============================================================================
|       100 |  127998   507966  1142730 |   186254      100     35 | 44.801 % |
|       250 |  127998   507966  1142730 |   204879      250     35 | 44.801 % |
===============================================================================
restarts              : 4
conflicts             : 411            (784 /sec)
decisions             : 12581          (0.00 % random) (24008 /sec)
propagations          : 2048639        (3909378 /sec)
conflict literals     : 12263          (3.07 % deleted)
Memory used           : 57.00 MB
CPU time              : 0.524032 s

SATISFIABLE
